100
128
59
37
10
13
54
24
34
3
52
37
26
34
21
15
14
61
4
17
55
1
22
33
27
52
42
8
5
10
1
9
14
61
45
34
26
59
25
13
53
36
64
25
22
12
21
38
34
64
16
33
47
7
35
15
19
26
33
4
37
1
21
2
1
37
21
22
9
21
16
31
37
18
28
20
38
16
20
23
19
15
2
32
1
1
4
61
29
38
15
54
37
59
39
16
49
20
27
21
34
23